============================[ Problem Statistics ]=============================|                                                                             ||  Number of variables:          4242                                         ||  Number of clauses:           10005                                         ||  Parse time:                   0.41 s                                       ||                                                                             |============================[ Search Statistics ]==============================| Conflicts |          ORIGINAL         |          LEARNT          | Progress ||           |    Vars  Clauses Literals |    Limit  Clauses Lit/Cl |          |===============================================================================|       100 |    1591     6210   627511 |     2277      100     53 | 62.501 % |===============================================================================restarts              : 3conflicts             : 226            (369 /sec)decisions             : 492            (0.00 % random) (804 /sec)propagations          : 11704          (19124 /sec)conflict literals     : 16586          (95.01 % deleted)CPU time              : 0.612 sSATISFIABLE